(set-logic QF_SLIA)
(declare-fun var0 () String)
(declare-fun var1 () String)
(declare-fun var2 () String)
(declare-fun var3 () String)
(declare-fun var4 () String)
(declare-fun var5 () String)
(declare-fun var6 () String)
(declare-fun var7 () String)
(declare-fun var8 () String)
(declare-fun var9 () String)
(declare-fun var10 () String)
(declare-fun var11 () String)
(declare-fun var12 () String)
(declare-fun var13 () String)
(declare-fun var14 () String)
(declare-fun var15 () String)
(declare-fun var16 () String)
(declare-fun var17 () String)
(declare-fun var18 () String)
(declare-fun var19 () String)
(declare-fun var20 () Int)
(declare-fun var21 () Int)
(declare-fun var22 () Int)
(declare-fun var23 () Int)
(declare-fun var24 () Bool)
(declare-fun var25 () Bool)
(assert (str.prefixof (str.substr var18 var22 var23) (str.replace (str.substr var7 5 var22) (str.substr var15 var21 var22) (str.at var4 var20))))
(assert (str.suffixof (str.at (str.at var16 var20) (str.len var9)) (str.replace (str.replace var19 var14 var7) (str.substr var1 var23 var23) (str.substr "[k'N(7yU[1" var20 var20))))
(assert (str.suffixof "}$8j+k""hC{" var10))
(assert (str.prefixof (str.substr (str.at var19 var20) (str.len var14) (str.indexof var19 var5 var22)) (str.substr (str.replace var17 var13 var17) (str.len var19) (str.len var3))))
(assert (str.suffixof var1 var13))
(assert (> (str.indexof (str.substr "ORvX""a^\\\\\\\\\\\\\\\\\\\\\\\\\\\\\\\\\\\\\\\\\\\\\\\\\\\\\\\\\\\\\\\\wY" var22 8) (str.at var7 var23) (str.len "-^Nll%GK'9")) (str.indexof "`16x`h\\\\\\\\\\\\\\\\\\\\\\\\\\\\\\\\\\\\\\\\\\\\\\\\\\\\\\\\\\\\\\\\{Ee" var0 var23)))
(assert (> (str.len (str.substr var12 (str.indexof (str.substr var12 var22 var20) (str.substr var13 (str.indexof var11 var9 var22) (str.indexof (str.substr var0 var20 var23) (str.replace "%Opc$W@hQ@" "f.d^Y+P+|j" var7) (str.len var3))) (str.indexof var19 "D\\\\\\\\\\\\\\\\\\\\\\\\\\\\\\\\zEo6x%cY" var22)) (str.indexof (str.substr var5 var20 var22) (str.at "[8;rY9;?KV" var20) (str.len var13)))) (str.len var15)))
(assert (<= var21 var23))
(assert (> (str.indexof var10 var18 var22) (str.indexof var7 var4 var22)))
(assert (str.prefixof (str.substr (str.substr var15 8 var20) (str.len var13) (str.len var13)) (str.at "7\\\\\\\\\\\\\\\\\\\\\\\\\\\\\\\\\\\\\\\\\\\\\\\\\\\\\\\\\\\\\\\\EC~7Xg!@" 9)))
(check-sat)